
Gurobi 9.5.0 (win64) logging started Tue Dec  7 12:39:51 2021

Set parameter LogFile to value "../results/logs/log_2021_12_07_12_26.csv_10_15.log"
Set parameter Method to value 3
Gurobi Optimizer version 9.5.0 build v9.5.0rc5 (win64)
Thread count: 6 physical cores, 12 logical processors, using up to 12 threads
Optimize a model with 157 rows, 9882 columns and 7489 nonzeros
Model fingerprint: 0xb223ecfa
Variable types: 4941 continuous, 4941 integer (4941 binary)
Coefficient statistics:
  Matrix range     [1e+00, 1e+01]
  Objective range  [1e+00, 1e+00]
  Bounds range     [1e+00, 1e+00]
  RHS range        [1e+00, 2e+01]
Found heuristic solution: objective -0.0000000
Presolve removed 116 rows and 9816 columns
Presolve time: 0.01s
Presolved: 41 rows, 66 columns, 214 nonzeros
Extracted 18 lazy constraints
Variable types: 31 continuous, 35 integer (35 binary)

Root relaxation: objective 3.600000e+01, 11 iterations, 0.00 seconds (0.00 work units)

    Nodes    |    Current Node    |     Objective Bounds      |     Work
 Expl Unexpl |  Obj  Depth IntInf | Incumbent    BestBd   Gap | It/Node Time

     0     0   13.12187    0    8   -0.00000   13.12187      -     -    0s
H    0     0                       2.0000000   13.12187   556%     -    0s
     0     0   10.65491    0    6    2.00000   10.65491   433%     -    0s
H    0     0                       9.0000000    9.87778  9.75%     -    0s
     0     0    9.00000    0    6    9.00000    9.00000  0.00%     -    0s

Cutting planes:
  Gomory: 2
  Implied bound: 2
  MIR: 10
  RLT: 1
  Relax-and-lift: 4
  Lazy constraints: 16

Explored 1 nodes (77 simplex iterations) in 0.02 seconds (0.01 work units)
Thread count was 12 (of 12 available processors)

Solution count 3: 9 2 -0 

Optimal solution found (tolerance 1.00e-04)
Best objective 9.000000000000e+00, best bound 9.000000000000e+00, gap 0.0000%
